c File: flat50_3_0.col
c
c SOURCE: Joseph Culberson (joe@cs.ualberta.ca)
c DESCRIPTION: Quasi-random coloring problem
c              generated with flatness = 0
c                             probability = 0.139
c                             known coloring = 3
c                             random seed = 1751
c              Creation Date:  Tue Jun  9 12:17:00 1998
c Maximum degree = 8 Minimum degree = 0
c p edge 50 115
c cnf created by edge2cnf
p cnf 150 545
-1 -2 0
-1 -3 0
-2 -3 0
1 2 3 0
-4 -5 0
-4 -6 0
-5 -6 0
4 5 6 0
-7 -8 0
-7 -9 0
-8 -9 0
7 8 9 0
-10 -11 0
-10 -12 0
-11 -12 0
10 11 12 0
-13 -14 0
-13 -15 0
-14 -15 0
13 14 15 0
-16 -17 0
-16 -18 0
-17 -18 0
16 17 18 0
-19 -20 0
-19 -21 0
-20 -21 0
19 20 21 0
-22 -23 0
-22 -24 0
-23 -24 0
22 23 24 0
-25 -26 0
-25 -27 0
-26 -27 0
25 26 27 0
-28 -29 0
-28 -30 0
-29 -30 0
28 29 30 0
-31 -32 0
-31 -33 0
-32 -33 0
31 32 33 0
-34 -35 0
-34 -36 0
-35 -36 0
34 35 36 0
-37 -38 0
-37 -39 0
-38 -39 0
37 38 39 0
-40 -41 0
-40 -42 0
-41 -42 0
40 41 42 0
-43 -44 0
-43 -45 0
-44 -45 0
43 44 45 0
-46 -47 0
-46 -48 0
-47 -48 0
46 47 48 0
-49 -50 0
-49 -51 0
-50 -51 0
49 50 51 0
-52 -53 0
-52 -54 0
-53 -54 0
52 53 54 0
-55 -56 0
-55 -57 0
-56 -57 0
55 56 57 0
-58 -59 0
-58 -60 0
-59 -60 0
58 59 60 0
-61 -62 0
-61 -63 0
-62 -63 0
61 62 63 0
-64 -65 0
-64 -66 0
-65 -66 0
64 65 66 0
-67 -68 0
-67 -69 0
-68 -69 0
67 68 69 0
-70 -71 0
-70 -72 0
-71 -72 0
70 71 72 0
-73 -74 0
-73 -75 0
-74 -75 0
73 74 75 0
-76 -77 0
-76 -78 0
-77 -78 0
76 77 78 0
-79 -80 0
-79 -81 0
-80 -81 0
79 80 81 0
-82 -83 0
-82 -84 0
-83 -84 0
82 83 84 0
-85 -86 0
-85 -87 0
-86 -87 0
85 86 87 0
-88 -89 0
-88 -90 0
-89 -90 0
88 89 90 0
-91 -92 0
-91 -93 0
-92 -93 0
91 92 93 0
-94 -95 0
-94 -96 0
-95 -96 0
94 95 96 0
-97 -98 0
-97 -99 0
-98 -99 0
97 98 99 0
-100 -101 0
-100 -102 0
-101 -102 0
100 101 102 0
-103 -104 0
-103 -105 0
-104 -105 0
103 104 105 0
-106 -107 0
-106 -108 0
-107 -108 0
106 107 108 0
-109 -110 0
-109 -111 0
-110 -111 0
109 110 111 0
-112 -113 0
-112 -114 0
-113 -114 0
112 113 114 0
-115 -116 0
-115 -117 0
-116 -117 0
115 116 117 0
-118 -119 0
-118 -120 0
-119 -120 0
118 119 120 0
-121 -122 0
-121 -123 0
-122 -123 0
121 122 123 0
-124 -125 0
-124 -126 0
-125 -126 0
124 125 126 0
-127 -128 0
-127 -129 0
-128 -129 0
127 128 129 0
-130 -131 0
-130 -132 0
-131 -132 0
130 131 132 0
-133 -134 0
-133 -135 0
-134 -135 0
133 134 135 0
-136 -137 0
-136 -138 0
-137 -138 0
136 137 138 0
-139 -140 0
-139 -141 0
-140 -141 0
139 140 141 0
-142 -143 0
-142 -144 0
-143 -144 0
142 143 144 0
-145 -146 0
-145 -147 0
-146 -147 0
145 146 147 0
-148 -149 0
-148 -150 0
-149 -150 0
148 149 150 0
-103 -1 0
-104 -2 0
-105 -3 0
-115 -1 0
-116 -2 0
-117 -3 0
-58 -4 0
-59 -5 0
-60 -6 0
-61 -4 0
-62 -5 0
-63 -6 0
-70 -4 0
-71 -5 0
-72 -6 0
-88 -4 0
-89 -5 0
-90 -6 0
-127 -4 0
-128 -5 0
-129 -6 0
-61 -7 0
-62 -8 0
-63 -9 0
-73 -7 0
-74 -8 0
-75 -9 0
-100 -7 0
-101 -8 0
-102 -9 0
-106 -7 0
-107 -8 0
-108 -9 0
-115 -7 0
-116 -8 0
-117 -9 0
-130 -7 0
-131 -8 0
-132 -9 0
-67 -10 0
-68 -11 0
-69 -12 0
-73 -10 0
-74 -11 0
-75 -12 0
-79 -10 0
-80 -11 0
-81 -12 0
-91 -10 0
-92 -11 0
-93 -12 0
-124 -10 0
-125 -11 0
-126 -12 0
-127 -10 0
-128 -11 0
-129 -12 0
-130 -10 0
-131 -11 0
-132 -12 0
-142 -10 0
-143 -11 0
-144 -12 0
-52 -13 0
-53 -14 0
-54 -15 0
-118 -13 0
-119 -14 0
-120 -15 0
-139 -13 0
-140 -14 0
-141 -15 0
-145 -13 0
-146 -14 0
-147 -15 0
-58 -16 0
-59 -17 0
-60 -18 0
-88 -16 0
-89 -17 0
-90 -18 0
-94 -16 0
-95 -17 0
-96 -18 0
-73 -19 0
-74 -20 0
-75 -21 0
-88 -19 0
-89 -20 0
-90 -21 0
-106 -19 0
-107 -20 0
-108 -21 0
-139 -19 0
-140 -20 0
-141 -21 0
-142 -19 0
-143 -20 0
-144 -21 0
-61 -22 0
-62 -23 0
-63 -24 0
-64 -22 0
-65 -23 0
-66 -24 0
-70 -22 0
-71 -23 0
-72 -24 0
-91 -22 0
-92 -23 0
-93 -24 0
-106 -22 0
-107 -23 0
-108 -24 0
-115 -22 0
-116 -23 0
-117 -24 0
-133 -22 0
-134 -23 0
-135 -24 0
-136 -25 0
-137 -26 0
-138 -27 0
-139 -25 0
-140 -26 0
-141 -27 0
-52 -28 0
-53 -29 0
-54 -30 0
-79 -28 0
-80 -29 0
-81 -30 0
-97 -28 0
-98 -29 0
-99 -30 0
-139 -28 0
-140 -29 0
-141 -30 0
-148 -28 0
-149 -29 0
-150 -30 0
-109 -31 0
-110 -32 0
-111 -33 0
-124 -31 0
-125 -32 0
-126 -33 0
-55 -34 0
-56 -35 0
-57 -36 0
-58 -34 0
-59 -35 0
-60 -36 0
-64 -34 0
-65 -35 0
-66 -36 0
-76 -34 0
-77 -35 0
-78 -36 0
-103 -34 0
-104 -35 0
-105 -36 0
-118 -34 0
-119 -35 0
-120 -36 0
-121 -34 0
-122 -35 0
-123 -36 0
-79 -37 0
-80 -38 0
-81 -39 0
-97 -37 0
-98 -38 0
-99 -39 0
-133 -37 0
-134 -38 0
-135 -39 0
-58 -40 0
-59 -41 0
-60 -42 0
-67 -40 0
-68 -41 0
-69 -42 0
-109 -40 0
-110 -41 0
-111 -42 0
-115 -40 0
-116 -41 0
-117 -42 0
-133 -40 0
-134 -41 0
-135 -42 0
-142 -40 0
-143 -41 0
-144 -42 0
-61 -43 0
-62 -44 0
-63 -45 0
-88 -43 0
-89 -44 0
-90 -45 0
-97 -43 0
-98 -44 0
-99 -45 0
-121 -43 0
-122 -44 0
-123 -45 0
-136 -43 0
-137 -44 0
-138 -45 0
-67 -46 0
-68 -47 0
-69 -48 0
-73 -46 0
-74 -47 0
-75 -48 0
-76 -46 0
-77 -47 0
-78 -48 0
-79 -46 0
-80 -47 0
-81 -48 0
-103 -46 0
-104 -47 0
-105 -48 0
-124 -46 0
-125 -47 0
-126 -48 0
-97 -49 0
-98 -50 0
-99 -51 0
-124 -49 0
-125 -50 0
-126 -51 0
-121 -52 0
-122 -53 0
-123 -54 0
-127 -52 0
-128 -53 0
-129 -54 0
-148 -55 0
-149 -56 0
-150 -57 0
-103 -58 0
-104 -59 0
-105 -60 0
-136 -58 0
-137 -59 0
-138 -60 0
-139 -58 0
-140 -59 0
-141 -60 0
-148 -58 0
-149 -59 0
-150 -60 0
-115 -61 0
-116 -62 0
-117 -63 0
-106 -64 0
-107 -65 0
-108 -66 0
-124 -64 0
-125 -65 0
-126 -66 0
-112 -67 0
-113 -68 0
-114 -69 0
-124 -67 0
-125 -68 0
-126 -69 0
-130 -67 0
-131 -68 0
-132 -69 0
-139 -67 0
-140 -68 0
-141 -69 0
-103 -70 0
-104 -71 0
-105 -72 0
-109 -70 0
-110 -71 0
-111 -72 0
-121 -70 0
-122 -71 0
-123 -72 0
-124 -70 0
-125 -71 0
-126 -72 0
-118 -73 0
-119 -74 0
-120 -75 0
-121 -73 0
-122 -74 0
-123 -75 0
-130 -73 0
-131 -74 0
-132 -75 0
-103 -76 0
-104 -77 0
-105 -78 0
-124 -76 0
-125 -77 0
-126 -78 0
-127 -76 0
-128 -77 0
-129 -78 0
-133 -76 0
-134 -77 0
-135 -78 0
-133 -79 0
-134 -80 0
-135 -81 0
-139 -79 0
-140 -80 0
-141 -81 0
-145 -85 0
-146 -86 0
-147 -87 0
-148 -85 0
-149 -86 0
-150 -87 0
-103 -91 0
-104 -92 0
-105 -93 0
-118 -91 0
-119 -92 0
-120 -93 0
-139 -91 0
-140 -92 0
-141 -93 0
-142 -91 0
-143 -92 0
-144 -93 0
-145 -97 0
-146 -98 0
-147 -99 0
-109 -100 0
-110 -101 0
-111 -102 0
-118 -100 0
-119 -101 0
-120 -102 0
-133 -100 0
-134 -101 0
-135 -102 0
